833 110
17 391
937 281
429 399
591 28
816 116
731 217
922 537
1064 52
1118 7
1308 437
999 536
607 449
996 294
1197 273
994 448
64 185
1143 343
138 537
480 473
532 460
248 522
106 340
1247 319
961 163
1282 115
586 151
164 80
1327 482
172 461
722 123
788 431
1275 562
723 357
1107 329
237 120
646 560
340 402
1024 73
1040 244
